263 5
10 10 10 10 10 

0 0 0 0 0 0 5 2 14 26 38 50 
0 0 0 0 0 0 6 3 6 9 10 11 12 
6 0 0 0 0 1 2 5 4 
8 0 0 0 0 5 2 8 7 
4 0 0 0 0 5 2 8 7 
10 0 0 0 0 2 1 7 
7 0 0 0 0 6 1 13 
7 0 0 0 0 10 1 13 
4 0 0 0 0 6 1 13 
7 0 0 0 0 5 2 13 43 
8 0 0 0 0 4 1 13 
8 0 0 0 0 6 1 13 
0 0 0 0 0 0 1 62 
0 0 0 0 0 0 5 15 16 18 23 24 
5 0 0 4 0 0 4 22 21 20 19 
4 0 0 4 0 0 1 17 
7 0 0 10 0 0 1 19 
3 0 0 6 0 0 1 20 
1 0 0 4 0 0 1 25 
8 0 0 2 0 0 1 25 
1 0 0 3 0 0 1 25 
8 0 0 7 0 0 1 25 
10 0 0 3 0 0 2 25 177 
5 0 0 7 0 0 1 25 
0 0 0 0 0 0 1 62 
0 0 0 0 0 0 5 27 29 34 35 36 
10 0 0 0 1 0 2 33 28 
2 0 0 0 2 0 2 31 30 
2 0 0 0 3 0 1 32 
4 0 0 0 3 0 1 37 
5 0 0 0 5 0 1 37 
10 0 0 0 9 0 1 37 
4 0 0 0 9 0 1 37 
2 0 0 0 6 0 2 37 51 
2 0 0 0 6 0 1 37 
9 0 0 0 6 0 1 37 
0 0 0 0 0 0 1 62 
0 0 0 0 0 0 5 39 41 42 47 48 
6 0 0 1 0 0 2 40 149 
10 0 0 6 0 0 4 46 45 44 43 
2 0 0 3 0 0 4 46 45 44 43 
8 0 0 7 0 0 1 43 
10 0 0 7 0 0 1 49 
1 0 0 6 0 0 1 49 
5 0 0 6 0 0 1 49 
2 0 0 6 0 0 1 49 
9 0 0 4 0 0 1 49 
4 0 0 4 0 0 1 49 
0 0 0 0 0 0 1 62 
0 0 0 0 0 0 7 51 53 54 55 56 57 60 
6 0 0 2 0 0 2 58 52 
4 0 0 5 0 0 1 59 
6 0 0 4 0 0 1 59 
5 0 0 2 0 0 1 59 
6 0 0 7 0 0 1 58 
1 0 0 4 0 0 1 58 
10 0 0 7 0 0 1 58 
8 0 0 4 0 0 1 61 
1 0 0 5 0 0 2 61 100 
2 0 0 10 0 0 1 61 
0 0 0 0 0 0 1 62 
0 0 0 0 0 0 5 63 75 87 99 111 
0 0 0 0 0 0 3 64 66 68 
10 0 0 0 1 0 2 67 65 
10 0 0 0 6 0 6 73 72 71 70 69 81 
10 0 0 0 3 0 4 73 71 70 69 
4 0 0 0 4 0 2 71 70 
4 0 0 0 7 0 2 72 69 
4 0 0 0 4 0 1 74 
7 0 0 0 9 0 1 74 
2 0 0 0 4 0 1 74 
10 0 0 0 5 0 1 74 
10 0 0 0 7 0 1 74 
0 0 0 0 0 0 1 123 
0 0 0 0 0 0 3 76 78 79 
6 0 0 1 0 0 3 84 80 77 
4 0 0 3 0 0 4 85 83 82 81 
5 0 0 6 0 0 4 84 83 81 191 
2 0 0 7 0 0 2 82 81 
4 0 0 3 0 0 1 81 
3 0 0 8 0 0 1 86 
6 0 0 6 0 0 1 86 
4 0 0 3 0 0 1 86 
9 0 0 6 0 0 1 86 
8 0 0 7 0 0 1 86 
0 0 0 0 0 0 1 123 
0 0 0 0 0 0 6 88 89 91 92 93 97 
2 0 0 0 0 1 2 96 90 
1 0 0 0 0 5 1 90 
4 0 0 0 0 5 1 94 
1 0 0 0 0 5 1 95 
9 0 0 0 0 6 2 94 105 
7 0 0 0 0 6 1 94 
6 0 0 0 0 8 1 98 
6 0 0 0 0 3 1 98 
6 0 0 0 0 6 1 98 
10 0 0 0 0 5 1 98 
0 0 0 0 0 0 1 123 
0 0 0 0 0 0 5 100 101 102 103 104 
9 0 0 0 0 1 4 109 106 105 172 
9 0 0 0 0 3 2 108 105 
5 0 0 0 0 5 2 109 107 
10 0 0 0 0 5 2 108 107 
2 0 0 0 0 10 2 108 107 
1 0 0 0 0 6 1 107 
10 0 0 0 0 5 1 107 
10 0 0 0 0 4 1 110 
8 0 0 0 0 6 1 110 
9 0 0 0 0 5 1 110 
0 0 0 0 0 0 1 123 
0 0 0 0 0 0 5 112 113 115 116 117 
9 0 0 0 1 0 1 114 
1 0 0 0 6 0 1 114 
9 0 0 0 7 0 4 121 120 119 118 
6 0 0 0 4 0 4 121 120 119 118 
3 0 0 0 4 0 2 120 119 
7 0 0 0 8 0 1 118 
1 0 0 0 4 0 1 122 
7 0 0 0 7 0 2 122 230 
5 0 0 0 7 0 1 122 
3 0 0 0 2 0 1 122 
0 0 0 0 0 0 1 123 
0 0 0 0 0 0 4 124 146 168 180 
0 0 0 0 0 0 6 125 126 127 128 129 130 
10 1 0 0 0 1 5 144 142 135 132 131 
1 5 0 0 0 10 4 143 142 137 132 
4 5 0 0 0 6 6 143 142 141 140 137 134 
3 5 0 0 0 5 6 143 142 141 140 137 134 
5 7 0 0 0 6 3 143 142 131 
9 7 0 0 0 7 3 142 140 133 
2 4 0 0 0 5 6 141 140 139 137 136 223 
2 6 0 0 0 8 3 141 140 134 
3 7 0 0 0 1 3 139 137 136 
2 7 0 0 0 4 2 139 136 
8 3 0 0 0 5 2 139 136 
7 7 0 0 0 4 1 138 
10 2 0 0 0 2 1 138 
3 7 0 0 0 8 1 145 
6 6 0 0 0 6 1 145 
5 2 0 0 0 3 1 145 
6 4 0 0 0 7 1 145 
2 4 0 0 0 3 1 145 
8 6 0 0 0 3 1 145 
2 5 0 0 0 6 1 145 
0 0 0 0 0 0 1 238 
0 0 0 0 0 0 6 147 149 150 152 154 157 
3 0 1 0 2 0 2 158 148 
6 0 3 0 2 0 3 165 155 151 
7 0 3 0 3 0 2 158 151 
7 0 6 0 9 0 2 159 153 
4 0 5 0 2 0 4 164 162 160 156 
9 0 6 0 3 0 4 163 162 161 158 
10 0 6 0 2 0 4 165 164 155 176 
10 0 5 0 6 0 2 159 155 
3 0 10 0 5 0 3 162 161 160 
9 0 4 0 5 0 3 166 163 161 
10 0 5 0 6 0 2 165 160 
10 0 5 0 6 0 1 159 
10 0 6 0 10 0 1 160 
7 0 3 0 4 0 1 167 
5 0 5 0 6 0 1 167 
2 0 4 0 4 0 1 167 
7 0 5 0 6 0 1 167 
10 0 6 0 4 0 1 167 
7 0 4 0 9 0 1 167 
10 0 8 0 6 0 1 167 
0 0 0 0 0 0 1 238 
0 0 0 0 0 0 5 169 170 172 177 178 
7 0 0 0 0 1 3 176 173 171 
2 0 0 0 0 3 2 175 173 
4 0 0 0 0 3 1 174 
1 0 0 0 0 6 1 173 
8 0 0 0 0 5 1 179 
2 0 0 0 0 6 1 179 
1 0 0 0 0 6 1 179 
5 0 0 0 0 8 2 179 217 
8 0 0 0 0 4 1 179 
2 0 0 0 0 8 1 179 
0 0 0 0 0 0 3 202 214 226 
0 0 0 0 0 0 6 181 182 183 184 185 186 
9 1 2 0 0 0 5 199 194 191 188 187 
9 4 2 0 0 0 4 200 199 193 188 
4 4 6 0 0 0 6 200 199 198 197 193 190 
9 8 5 0 0 0 6 200 199 198 197 193 190 
2 9 6 0 0 0 3 200 199 187 
1 6 3 0 0 0 3 199 197 189 
3 4 4 0 0 0 5 198 197 196 193 192 
4 4 3 0 0 0 3 198 197 190 
1 5 6 0 0 0 3 196 193 192 
6 5 7 0 0 0 2 196 192 
9 5 5 0 0 0 2 196 192 
3 9 7 0 0 0 1 195 
9 4 2 0 0 0 1 195 
7 4 3 0 0 0 1 195 
1 5 5 0 0 0 1 201 
4 2 6 0 0 0 1 201 
8 9 7 0 0 0 1 201 
9 4 6 0 0 0 1 201 
6 2 10 0 0 0 2 201 209 
1 6 5 0 0 0 1 201 
0 0 0 0 0 0 1 238 
0 0 0 0 0 0 4 203 204 206 207 
4 0 0 0 3 0 3 211 208 205 
7 0 0 0 5 0 2 208 205 
5 0 0 0 5 0 3 212 210 209 
9 0 0 0 2 0 3 211 210 209 
6 0 0 0 4 0 2 211 209 
5 0 0 0 4 0 1 209 
5 0 0 0 5 0 1 213 
3 0 0 0 8 0 1 213 
9 0 0 0 4 0 2 213 253 
1 0 0 0 10 0 1 213 
0 0 0 0 0 0 1 238 
0 0 0 0 0 0 6 215 216 217 218 219 224 
10 1 0 0 0 0 3 223 222 220 
8 7 0 0 0 0 3 222 220 243 
5 9 0 0 0 0 1 220 
5 7 0 0 0 0 1 220 
9 4 0 0 0 0 1 220 
9 4 0 0 0 0 1 221 
1 5 0 0 0 0 1 225 
5 3 0 0 0 0 1 225 
3 4 0 0 0 0 1 225 
5 6 0 0 0 0 1 225 
0 0 0 0 0 0 1 238 
0 0 0 0 0 0 5 227 228 230 231 236 
3 0 0 1 0 0 2 235 229 
6 0 0 3 0 0 1 229 
8 0 0 2 0 0 1 232 
8 0 0 9 0 0 1 234 
10 0 0 7 0 0 1 233 
4 0 0 6 0 0 1 237 
10 0 0 7 0 0 1 237 
6 0 0 8 0 0 2 237 247 
6 0 0 4 0 0 1 237 
3 0 0 3 0 0 1 237 
0 0 0 0 0 0 1 238 
0 0 0 0 0 0 2 239 251 
0 0 0 0 0 0 2 240 241 
3 1 0 0 0 0 2 249 243 
2 7 0 0 0 0 1 242 
3 3 0 0 0 0 6 249 248 247 246 245 244 
8 3 0 0 0 0 6 248 247 246 245 244 260 
5 4 0 0 0 0 1 250 
8 6 0 0 0 0 1 250 
5 7 0 0 0 0 1 250 
2 3 0 0 0 0 1 250 
3 8 0 0 0 0 1 250 
1 8 0 0 0 0 1 250 
0 0 0 0 0 0 1 263 
0 0 0 0 0 0 5 252 253 254 255 258 
6 1 0 0 0 0 3 260 257 256 
1 4 0 0 0 0 3 261 260 259 
8 2 0 0 0 0 2 260 256 
9 6 0 0 0 0 2 260 259 
7 6 0 0 0 0 1 259 
5 8 0 0 0 0 1 259 
5 6 0 0 0 0 1 259 
4 4 0 0 0 0 1 262 
10 8 0 0 0 0 1 262 
9 5 0 0 0 0 1 262 
0 0 0 0 0 0 1 263 
0 0 0 0 0 0 0 
